; PUSH cw_3 MLOAD CALLVALUE PUSH cw_4 SWAP2 DUP3 => PUSH cw_4 CALLVALUE PUSH cw_3 MLOAD PUSH cw_4
(set-option :produce-proofs true)
; 
(set-info :status unknown)
(declare-fun storage_t ((_ BitVec 256) (_ BitVec 256) (_ BitVec 256) (_ BitVec 256) Int (_ BitVec 256)) (_ BitVec 256))
(declare-fun w_4 () (_ BitVec 256))
(declare-fun w_3 () (_ BitVec 256))
(declare-fun storage_s ((_ BitVec 256) (_ BitVec 256) (_ BitVec 256) (_ BitVec 256) Int (_ BitVec 256)) (_ BitVec 256))
(declare-fun exc_halt_t (Int) Bool)
(declare-fun exc_halt_s (Int) Bool)
(declare-fun stack_t ((_ BitVec 256) (_ BitVec 256) (_ BitVec 256) (_ BitVec 256) Int (_ BitVec 6)) (_ BitVec 256))
(declare-fun stack_s ((_ BitVec 256) (_ BitVec 256) (_ BitVec 256) (_ BitVec 256) Int (_ BitVec 6)) (_ BitVec 256))
(declare-fun sc_t (Int) (_ BitVec 6))
(declare-fun sc_s (Int) (_ BitVec 6))
(declare-fun used_gas_t ((_ BitVec 256) (_ BitVec 256) (_ BitVec 256) (_ BitVec 256) Int) Int)
(declare-fun used_gas_s ((_ BitVec 256) (_ BitVec 256) (_ BitVec 256) (_ BitVec 256) Int) Int)
(declare-fun f_MLOAD ((_ BitVec 256) (_ BitVec 256) (_ BitVec 256) (_ BitVec 256) (_ BitVec 256)) (_ BitVec 256))
(assert
 (exists ((x_CALLVALUE (_ BitVec 256)) (x_MLOAD_0 (_ BitVec 256)) )(let (($x3924 (forall ((w (_ BitVec 256)) )(let ((?x3932 (storage_t w_3 w_4 x_CALLVALUE x_MLOAD_0 5 w)))
 (let ((?x3939 (storage_s w_3 w_4 x_CALLVALUE x_MLOAD_0 6 w)))
 (= ?x3939 ?x3932))))
 ))
 (let (($x886 (exc_halt_t 5)))
 (let (($x772 (exc_halt_s 6)))
 (let (($x889 (= $x772 $x886)))
 (let (($x3492 (forall ((n (_ BitVec 6)) )(let ((?x1312 (stack_t w_3 w_4 x_CALLVALUE x_MLOAD_0 5 n)))
 (let ((?x124 (stack_s w_3 w_4 x_CALLVALUE x_MLOAD_0 6 n)))
 (let (($x6198 (= ?x124 ?x1312)))
 (or (bvsle (sc_t 5) n) $x6198)))))
 ))
 (let ((?x919 (sc_t 5)))
 (let ((?x926 (sc_s 6)))
 (let (($x929 (= ?x926 ?x919)))
 (let ((?x6170 (used_gas_t w_3 w_4 x_CALLVALUE x_MLOAD_0 0)))
 (let ((?x6169 (used_gas_s w_3 w_4 x_CALLVALUE x_MLOAD_0 0)))
 (let (($x6171 (= ?x6169 ?x6170)))
 (let (($x3482 (forall ((w (_ BitVec 256)) )(let ((?x3910 (storage_t w_3 w_4 x_CALLVALUE x_MLOAD_0 0 w)))
 (let ((?x3906 (storage_s w_3 w_4 x_CALLVALUE x_MLOAD_0 0 w)))
 (= ?x3906 ?x3910))))
 ))
 (let (($x56 (exc_halt_t 0)))
 (let (($x57 (exc_halt_s 0)))
 (let (($x58 (= $x57 $x56)))
 (let (($x3501 (forall ((n (_ BitVec 6)) )(let ((?x3907 (stack_t w_3 w_4 x_CALLVALUE x_MLOAD_0 0 n)))
 (let ((?x9427 (stack_s w_3 w_4 x_CALLVALUE x_MLOAD_0 0 n)))
 (let (($x9527 (= ?x9427 ?x3907)))
 (let ((?x63 (sc_t 0)))
 (let (($x3675 (bvsle ?x63 n)))
 (or $x3675 $x9527)))))))
 ))
 (let ((?x63 (sc_t 0)))
 (let ((?x72 (sc_s 0)))
 (let (($x73 (= ?x72 ?x63)))
 (let (($x8747 (exc_halt_t 4)))
 (let (($x1188 (or $x8747 (not (= ((_ extract 6 6) (bvadd (_ bv1 7) (concat (_ bv0 1) (sc_t 4)))) (_ bv0 1))))))
 (let (($x3524 (forall ((w (_ BitVec 256)) )(let ((?x3917 (storage_t w_3 w_4 x_CALLVALUE x_MLOAD_0 4 w)))
 (let ((?x3932 (storage_t w_3 w_4 x_CALLVALUE x_MLOAD_0 5 w)))
 (= ?x3932 ?x3917))))
 ))
 (let (($x3539 (forall ((n (_ BitVec 6)) )(let ((?x3922 (stack_t w_3 w_4 x_CALLVALUE x_MLOAD_0 4 n)))
 (let ((?x1312 (stack_t w_3 w_4 x_CALLVALUE x_MLOAD_0 5 n)))
 (or (bvsle (sc_t 4) n) (= ?x1312 ?x3922)))))
 ))
 (let (($x3662 (= (used_gas_t w_3 w_4 x_CALLVALUE x_MLOAD_0 5) (+ 3 (used_gas_t w_3 w_4 x_CALLVALUE x_MLOAD_0 4)))))
 (let (($x3274 (= $x8747 (or (exc_halt_t 3) (not (bvsle (_ bv0 6) (bvadd (_ bv63 6) (sc_t 3))))))))
 (let (($x3247 (forall ((w (_ BitVec 256)) )(let ((?x3384 (storage_t w_3 w_4 x_CALLVALUE x_MLOAD_0 3 w)))
 (let ((?x3917 (storage_t w_3 w_4 x_CALLVALUE x_MLOAD_0 4 w)))
 (= ?x3917 ?x3384))))
 ))
 (let (($x3758 (forall ((n (_ BitVec 6)) )(let ((?x3490 (stack_t w_3 w_4 x_CALLVALUE x_MLOAD_0 3 n)))
 (let ((?x3922 (stack_t w_3 w_4 x_CALLVALUE x_MLOAD_0 4 n)))
 (or (= ?x3922 ?x3490) (bvsle (bvadd (_ bv63 6) (sc_t 3)) n)))))
 ))
 (let ((?x3919 (used_gas_t w_3 w_4 x_CALLVALUE x_MLOAD_0 4)))
 (let ((?x3664 (f_MLOAD w_3 w_4 x_CALLVALUE x_MLOAD_0 (stack_t w_3 w_4 x_CALLVALUE x_MLOAD_0 3 (bvadd (_ bv63 6) (sc_t 3))))))
 (let (($x3346 (= (stack_t w_3 w_4 x_CALLVALUE x_MLOAD_0 4 (bvadd (_ bv63 6) (sc_t 4))) ?x3664)))
 (let (($x903 (exc_halt_t 2)))
 (let (($x3631 (or $x903 (not (= ((_ extract 6 6) (bvadd (_ bv1 7) (concat (_ bv0 1) (sc_t 2)))) (_ bv0 1))))))
 (let (($x8030 (exc_halt_t 3)))
 (let (($x3554 (forall ((w (_ BitVec 256)) )(let ((?x1046 (storage_t w_3 w_4 x_CALLVALUE x_MLOAD_0 2 w)))
 (let ((?x3384 (storage_t w_3 w_4 x_CALLVALUE x_MLOAD_0 3 w)))
 (= ?x3384 ?x1046))))
 ))
 (let (($x3729 (forall ((n (_ BitVec 6)) )(let ((?x1049 (stack_t w_3 w_4 x_CALLVALUE x_MLOAD_0 2 n)))
 (let ((?x3490 (stack_t w_3 w_4 x_CALLVALUE x_MLOAD_0 3 n)))
 (or (bvsle (sc_t 2) n) (= ?x3490 ?x1049)))))
 ))
 (let ((?x9375 (used_gas_t w_3 w_4 x_CALLVALUE x_MLOAD_0 3)))
 (let (($x1920 (exc_halt_t 1)))
 (let (($x3574 (or $x1920 (not (= ((_ extract 6 6) (bvadd (_ bv1 7) (concat (_ bv0 1) (sc_t 1)))) (_ bv0 1))))))
 (let (($x6419 (forall ((w (_ BitVec 256)) )(let ((?x9366 (storage_t w_3 w_4 x_CALLVALUE x_MLOAD_0 1 w)))
 (let ((?x1046 (storage_t w_3 w_4 x_CALLVALUE x_MLOAD_0 2 w)))
 (= ?x1046 ?x9366))))
 ))
 (let (($x4068 (forall ((n (_ BitVec 6)) )(let ((?x5985 (stack_t w_3 w_4 x_CALLVALUE x_MLOAD_0 1 n)))
 (let ((?x1049 (stack_t w_3 w_4 x_CALLVALUE x_MLOAD_0 2 n)))
 (or (bvsle (sc_t 1) n) (= ?x1049 ?x5985)))))
 ))
 (let ((?x3885 (used_gas_t w_3 w_4 x_CALLVALUE x_MLOAD_0 2)))
 (let (($x420 (= $x1920 (or $x56 (not (= ((_ extract 6 6) (bvadd (_ bv1 7) (concat (_ bv0 1) ?x63))) (_ bv0 1)))))))
 (let (($x3769 (forall ((w (_ BitVec 256)) )(let ((?x3910 (storage_t w_3 w_4 x_CALLVALUE x_MLOAD_0 0 w)))
 (let ((?x9366 (storage_t w_3 w_4 x_CALLVALUE x_MLOAD_0 1 w)))
 (= ?x9366 ?x3910))))
 ))
 (let (($x1269 (forall ((n (_ BitVec 6)) )(let ((?x3907 (stack_t w_3 w_4 x_CALLVALUE x_MLOAD_0 0 n)))
 (let ((?x5985 (stack_t w_3 w_4 x_CALLVALUE x_MLOAD_0 1 n)))
 (let ((?x63 (sc_t 0)))
 (let (($x3675 (bvsle ?x63 n)))
 (or $x3675 (= ?x5985 ?x3907)))))))
 ))
 (let (($x3979 (exc_halt_s 5)))
 (let (($x3793 (or $x3979 (not (bvsle (_ bv0 6) (bvadd (_ bv61 6) (sc_s 5)))) (not (= ((_ extract 6 6) (bvadd (_ bv1 7) (concat (_ bv0 1) (sc_s 5)))) (_ bv0 1))))))
 (let (($x1354 (forall ((w (_ BitVec 256)) )(let ((?x4048 (storage_s w_3 w_4 x_CALLVALUE x_MLOAD_0 5 w)))
 (let ((?x3939 (storage_s w_3 w_4 x_CALLVALUE x_MLOAD_0 6 w)))
 (= ?x3939 ?x4048))))
 ))
 (let (($x3730 (forall ((n (_ BitVec 6)) )(let ((?x2826 (stack_s w_3 w_4 x_CALLVALUE x_MLOAD_0 5 n)))
 (let ((?x124 (stack_s w_3 w_4 x_CALLVALUE x_MLOAD_0 6 n)))
 (or (= ?x124 ?x2826) (bvsle (bvadd (_ bv61 6) (sc_s 5)) n)))))
 ))
 (let (($x3778 (= (used_gas_s w_3 w_4 x_CALLVALUE x_MLOAD_0 6) (+ 3 (used_gas_s w_3 w_4 x_CALLVALUE x_MLOAD_0 5)))))
 (let ((?x805 (sc_s 5)))
 (let ((?x930 (bvadd (_ bv63 6) ?x805)))
 (let ((?x3802 (stack_s w_3 w_4 x_CALLVALUE x_MLOAD_0 5 ?x930)))
 (let ((?x3810 (bvadd (_ bv62 6) ?x805)))
 (let ((?x3821 (stack_s w_3 w_4 x_CALLVALUE x_MLOAD_0 5 ?x3810)))
 (let ((?x3790 (bvadd (_ bv61 6) ?x805)))
 (let ((?x366 (stack_s w_3 w_4 x_CALLVALUE x_MLOAD_0 5 ?x3790)))
 (let (($x9879 (= $x3979 (or (exc_halt_s 4) (not (bvsle (_ bv0 6) (bvadd (_ bv61 6) (sc_s 4))))))))
 (let (($x1985 (forall ((w (_ BitVec 256)) )(let ((?x3764 (storage_s w_3 w_4 x_CALLVALUE x_MLOAD_0 4 w)))
 (let ((?x4048 (storage_s w_3 w_4 x_CALLVALUE x_MLOAD_0 5 w)))
 (= ?x4048 ?x3764))))
 ))
 (let (($x3538 (forall ((n (_ BitVec 6)) )(let ((?x3363 (stack_s w_3 w_4 x_CALLVALUE x_MLOAD_0 4 n)))
 (let ((?x2826 (stack_s w_3 w_4 x_CALLVALUE x_MLOAD_0 5 n)))
 (or (bvsle (bvadd (_ bv61 6) (sc_s 4)) n) (= ?x2826 ?x3363)))))
 ))
 (let ((?x5433 (used_gas_s w_3 w_4 x_CALLVALUE x_MLOAD_0 5)))
 (let (($x3791 (= ?x3821 (stack_s w_3 w_4 x_CALLVALUE x_MLOAD_0 4 (bvadd (_ bv62 6) (sc_s 4))))))
 (let (($x4900 (= ?x366 (stack_s w_3 w_4 x_CALLVALUE x_MLOAD_0 4 (bvadd (_ bv63 6) (sc_s 4))))))
 (let (($x372 (= ?x3802 (stack_s w_3 w_4 x_CALLVALUE x_MLOAD_0 4 (bvadd (_ bv61 6) (sc_s 4))))))
 (let (($x292 (exc_halt_s 3)))
 (let (($x6482 (or $x292 (not (= ((_ extract 6 6) (bvadd (_ bv1 7) (concat (_ bv0 1) (sc_s 3)))) (_ bv0 1))))))
 (let (($x64 (exc_halt_s 4)))
 (let (($x3797 (forall ((w (_ BitVec 256)) )(let ((?x4014 (storage_s w_3 w_4 x_CALLVALUE x_MLOAD_0 3 w)))
 (let ((?x3764 (storage_s w_3 w_4 x_CALLVALUE x_MLOAD_0 4 w)))
 (= ?x3764 ?x4014))))
 ))
 (let (($x3803 (forall ((n (_ BitVec 6)) )(let ((?x4015 (stack_s w_3 w_4 x_CALLVALUE x_MLOAD_0 3 n)))
 (let ((?x3363 (stack_s w_3 w_4 x_CALLVALUE x_MLOAD_0 4 n)))
 (or (= ?x3363 ?x4015) (bvsle (sc_s 3) n)))))
 ))
 (let ((?x4030 (used_gas_s w_3 w_4 x_CALLVALUE x_MLOAD_0 4)))
 (let (($x247 (exc_halt_s 2)))
 (let (($x9214 (or $x247 (not (= ((_ extract 6 6) (bvadd (_ bv1 7) (concat (_ bv0 1) (sc_s 2)))) (_ bv0 1))))))
 (let (($x3796 (forall ((w (_ BitVec 256)) )(let ((?x1872 (storage_s w_3 w_4 x_CALLVALUE x_MLOAD_0 2 w)))
 (let ((?x4014 (storage_s w_3 w_4 x_CALLVALUE x_MLOAD_0 3 w)))
 (= ?x4014 ?x1872))))
 ))
 (let (($x8001 (forall ((n (_ BitVec 6)) )(let ((?x1868 (stack_s w_3 w_4 x_CALLVALUE x_MLOAD_0 2 n)))
 (let ((?x4015 (stack_s w_3 w_4 x_CALLVALUE x_MLOAD_0 3 n)))
 (or (= ?x4015 ?x1868) (bvsle (sc_s 2) n)))))
 ))
 (let ((?x1877 (used_gas_s w_3 w_4 x_CALLVALUE x_MLOAD_0 3)))
 (let (($x3844 (= $x247 (or (exc_halt_s 1) (not (bvsle (_ bv0 6) (bvadd (_ bv63 6) (sc_s 1))))))))
 (let (($x4126 (forall ((w (_ BitVec 256)) )(let ((?x771 (storage_s w_3 w_4 x_CALLVALUE x_MLOAD_0 1 w)))
 (let ((?x1872 (storage_s w_3 w_4 x_CALLVALUE x_MLOAD_0 2 w)))
 (= ?x1872 ?x771))))
 ))
 (let (($x3709 (forall ((n (_ BitVec 6)) )(let ((?x761 (stack_s w_3 w_4 x_CALLVALUE x_MLOAD_0 1 n)))
 (let ((?x1868 (stack_s w_3 w_4 x_CALLVALUE x_MLOAD_0 2 n)))
 (or (bvsle (bvadd (_ bv63 6) (sc_s 1)) n) (= ?x1868 ?x761)))))
 ))
 (let ((?x1660 (used_gas_s w_3 w_4 x_CALLVALUE x_MLOAD_0 2)))
 (let ((?x2314 (f_MLOAD w_3 w_4 x_CALLVALUE x_MLOAD_0 (stack_s w_3 w_4 x_CALLVALUE x_MLOAD_0 1 (bvadd (_ bv63 6) (sc_s 1))))))
 (let (($x3828 (= (stack_s w_3 w_4 x_CALLVALUE x_MLOAD_0 2 (bvadd (_ bv63 6) (sc_s 2))) ?x2314)))
 (let (($x189 (exc_halt_s 1)))
 (let (($x3837 (= $x189 (or $x57 (not (= ((_ extract 6 6) (bvadd (_ bv1 7) (concat (_ bv0 1) ?x72))) (_ bv0 1)))))))
 (let (($x2267 (forall ((w (_ BitVec 256)) )(let ((?x3906 (storage_s w_3 w_4 x_CALLVALUE x_MLOAD_0 0 w)))
 (let ((?x771 (storage_s w_3 w_4 x_CALLVALUE x_MLOAD_0 1 w)))
 (= ?x771 ?x3906))))
 ))
 (let (($x6582 (forall ((n (_ BitVec 6)) )(let ((?x9427 (stack_s w_3 w_4 x_CALLVALUE x_MLOAD_0 0 n)))
 (let ((?x761 (stack_s w_3 w_4 x_CALLVALUE x_MLOAD_0 1 n)))
 (or (bvsle (sc_s 0) n) (= ?x761 ?x9427)))))
 ))
 (let (($x3861 (forall ((w0 (_ BitVec 256)) )(let (($x6773 (= (stack_s w_3 w_4 x_CALLVALUE x_MLOAD_0 1 (bvadd (_ bv63 6) (sc_s 1))) w0)))
 (let ((?x4288 (f_MLOAD w_3 w_4 x_CALLVALUE x_MLOAD_0 w0)))
 (= ?x4288 (ite $x6773 x_MLOAD_0 (_ bv0 256))))))
 ))
 (let (($x4259 (forall ((w (_ BitVec 256)) )(let ((?x3906 (storage_s w_3 w_4 x_CALLVALUE x_MLOAD_0 0 w)))
 (= ?x3906 (_ bv0 256))))
 ))
 (let (($x3866 (= ?x6169 0)))
 (let (($x136 (= ?x72 (_ bv0 6))))
 (and $x136 (not $x57) $x3866 $x4259 $x3861 (= (stack_s w_3 w_4 x_CALLVALUE x_MLOAD_0 1 ?x72) w_3) (= (used_gas_s w_3 w_4 x_CALLVALUE x_MLOAD_0 1) (+ 3 ?x6169)) (= (sc_s 1) (bvadd (_ bv1 6) ?x72)) $x6582 $x2267 $x3837 $x3828 (= ?x1660 (+ 3 (used_gas_s w_3 w_4 x_CALLVALUE x_MLOAD_0 1))) (= (sc_s 2) (sc_s 1)) $x3709 $x4126 $x3844 (= (stack_s w_3 w_4 x_CALLVALUE x_MLOAD_0 3 (sc_s 2)) x_CALLVALUE) (= ?x1877 (+ 2 ?x1660)) (= (sc_s 3) (bvadd (_ bv1 6) (sc_s 2))) $x8001 $x3796 (= $x292 $x9214) (= (stack_s w_3 w_4 x_CALLVALUE x_MLOAD_0 4 (sc_s 3)) w_4) (= ?x4030 (+ 3 ?x1877)) (= (sc_s 4) (bvadd (_ bv1 6) (sc_s 3))) $x3803 $x3797 (= $x64 $x6482) $x372 $x4900 $x3791 (= ?x5433 (+ 3 ?x4030)) (= ?x805 (sc_s 4)) $x3538 $x1985 $x9879 (= (stack_s w_3 w_4 x_CALLVALUE x_MLOAD_0 6 (bvadd (_ bv63 6) ?x926)) ?x366) (= (stack_s w_3 w_4 x_CALLVALUE x_MLOAD_0 6 ?x3790) ?x366) (= (stack_s w_3 w_4 x_CALLVALUE x_MLOAD_0 6 ?x3810) ?x3821) (= (stack_s w_3 w_4 x_CALLVALUE x_MLOAD_0 6 ?x930) ?x3802) $x3778 (= ?x926 (bvadd (_ bv1 6) ?x805)) $x3730 $x1354 (= $x772 $x3793) (= (stack_t w_3 w_4 x_CALLVALUE x_MLOAD_0 1 ?x63) w_4) (= (used_gas_t w_3 w_4 x_CALLVALUE x_MLOAD_0 1) (+ 3 ?x6170)) (= (sc_t 1) (bvadd (_ bv1 6) ?x63)) $x1269 $x3769 $x420 (= (stack_t w_3 w_4 x_CALLVALUE x_MLOAD_0 2 (sc_t 1)) x_CALLVALUE) (= ?x3885 (+ 2 (used_gas_t w_3 w_4 x_CALLVALUE x_MLOAD_0 1))) (= (sc_t 2) (bvadd (_ bv1 6) (sc_t 1))) $x4068 $x6419 (= $x903 $x3574) (= (stack_t w_3 w_4 x_CALLVALUE x_MLOAD_0 3 (sc_t 2)) w_3) (= ?x9375 (+ 3 ?x3885)) (= (sc_t 3) (bvadd (_ bv1 6) (sc_t 2))) $x3729 $x3554 (= $x8030 $x3631) $x3346 (= ?x3919 (+ 3 ?x9375)) (= (sc_t 4) (sc_t 3)) $x3758 $x3247 $x3274 (= (stack_t w_3 w_4 x_CALLVALUE x_MLOAD_0 5 (sc_t 4)) w_4) $x3662 (= ?x919 (bvadd (_ bv1 6) (sc_t 4))) $x3539 $x3524 (= $x886 $x1188) $x73 $x3501 $x58 $x3482 $x6171 (not (and $x929 $x3492 $x889 $x3924))))))))))))))))))))))))))))))))))))))))))))))))))))))))))))))))))))))))))))))))))))))))))))
 )
(check-sat)
(get-proof)
